min: c;

c = 3.17982511619084 * u2_t7_h3 + 3.46885280267708 * u2_t7_h4 + 3.25331514646487 * u2_t2_h5 + 3.25331514646487 * u2_t3_h5 + 3.25331514646487 * u2_t7_h5 + 4.38247645886552 * u2_t2_h6 + 4.38247645886552 * u2_t3_h6 + 4.38247645886552 * u2_t4_h6 + 4.38247645886552 * u2_t7_h6 + 4.38247645886552 * u2_t10_h6 + 4.01283875311857 * u2_t2_h7 + 4.01283875311857 * u2_t3_h7 + 4.01283875311857 * u2_t4_h7 + 4.01283875311857 * u2_t7_h7 + 4.01283875311857 * u2_t10_h7 + 5.72858630267492 * u2_t2_h8 + 5.72858630267492 * u2_t3_h8 + 5.72858630267492 * u2_t4_h8 + 5.72858630267492 * u2_t7_h8 + 5.72858630267492 * u2_t10_h8 + 4.76077867036614 * u2_t2_h9 + 4.76077867036614 * u2_t3_h9 + 4.76077867036614 * u2_t4_h9 + 4.76077867036614 * u2_t7_h9 + 4.76077867036614 * u2_t10_h9 + 5.87747414643875 * u2_t2_h10 + 5.87747414643875 * u2_t3_h10 + 5.87747414643875 * u2_t4_h10 + 5.87747414643875 * u2_t7_h10 + 5.87747414643875 * u2_t10_h10 + 3.6240017754808 * u2_t1_h11 + 3.6240017754808 * u2_t2_h11 + 3.6240017754808 * u2_t3_h11 + 3.6240017754808 * u2_t4_h11 + 3.6240017754808 * u2_t7_h11 + 3.6240017754808 * u2_t10_h11 + 5.77368517918127 * u2_t1_h12 + 5.77368517918127 * u2_t3_h12 + 5.77368517918127 * u2_t4_h12 + 5.77368517918127 * u2_t7_h12 + 4.30932124023077 * u2_t1_h13 + 4.30932124023077 * u2_t3_h13 + 4.30932124023077 * u2_t4_h13 + 4.30932124023077 * u2_t7_h13 + 4.30932124023077 * u2_t9_h13 + 5.83966899737267 * u2_t1_h14 + 5.83966899737267 * u2_t3_h14 + 5.83966899737267 * u2_t4_h14 + 5.83966899737267 * u2_t7_h14 + 5.83966899737267 * u2_t9_h14 + 6.26169140036197 * u2_t1_h15 + 6.26169140036197 * u2_t3_h15 + 6.26169140036197 * u2_t4_h15 + 6.26169140036197 * u2_t7_h15 + 6.26169140036197 * u2_t9_h15 + 6.15252586879726 * u2_t1_h16 + 6.15252586879726 * u2_t3_h16 + 6.15252586879726 * u2_t4_h16 + 6.15252586879726 * u2_t7_h16 + 6.15252586879726 * u2_t9_h16 + 5.88566790240526 * u2_t1_h17 + 5.88566790240526 * u2_t3_h17 + 5.88566790240526 * u2_t4_h17 + 5.88566790240526 * u2_t7_h17 + 5.88566790240526 * u2_t9_h17 + 6.94232320601809 * u2_t1_h18 + 6.94232320601809 * u2_t3_h18 + 6.94232320601809 * u2_t4_h18 + 6.94232320601809 * u2_t6_h18 + 6.94232320601809 * u2_t7_h18 + 5.36123945149729 * u2_t1_h19 + 5.36123945149729 * u2_t3_h19 + 5.36123945149729 * u2_t4_h19 + 5.36123945149729 * u2_t5_h19 + 5.36123945149729 * u2_t6_h19 + 5.36123945149729 * u2_t7_h19 + 5.92950490199927 * u2_t1_h20 + 5.92950490199927 * u2_t3_h20 + 5.92950490199927 * u2_t4_h20 + 5.92950490199927 * u2_t6_h20 + 5.92950490199927 * u2_t7_h20 + 5.51699425461313 * u2_t1_h21 + 5.51699425461313 * u2_t3_h21 + 5.51699425461313 * u2_t6_h21 + 5.51699425461313 * u2_t7_h21 + 5.51699425461313 * u2_t8_h21 + 6.00294159370126 * u2_t1_h22 + 6.00294159370126 * u2_t3_h22 + 6.00294159370126 * u2_t7_h22 + 6.00294159370126 * u2_t8_h22 + 5.27332479129281 * u2_t3_h23 + 5.27332479129281 * u2_t7_h23 + 5.27332479129281 * u2_t8_h23;
0 <= u2_t1_h11 <= 1;
0 <= u2_t1_h12 <= 1;
0 <= u2_t1_h13 <= 1;
0 <= u2_t1_h14 <= 1;
0 <= u2_t1_h15 <= 1;
0 <= u2_t1_h16 <= 1;
0 <= u2_t1_h17 <= 1;
0 <= u2_t1_h18 <= 1;
0 <= u2_t1_h19 <= 1;
0 <= u2_t1_h20 <= 1;
0 <= u2_t1_h21 <= 1;
0 <= u2_t1_h22 <= 1;
u2_t1_h11 + u2_t1_h12 + u2_t1_h13 + u2_t1_h14 + u2_t1_h15 + u2_t1_h16 + u2_t1_h17 + u2_t1_h18 + u2_t1_h19 + u2_t1_h20 + u2_t1_h21 + u2_t1_h22 = 2;
0 <= u2_t2_h5 <= 1;
0 <= u2_t2_h6 <= 1;
0 <= u2_t2_h7 <= 1;
0 <= u2_t2_h8 <= 1;
0 <= u2_t2_h9 <= 1;
0 <= u2_t2_h10 <= 1;
0 <= u2_t2_h11 <= 1;
u2_t2_h5 + u2_t2_h6 + u2_t2_h7 + u2_t2_h8 + u2_t2_h9 + u2_t2_h10 + u2_t2_h11 = 2;
0 <= u2_t3_h5 <= 1;
0 <= u2_t3_h6 <= 1;
0 <= u2_t3_h7 <= 1;
0 <= u2_t3_h8 <= 1;
0 <= u2_t3_h9 <= 1;
0 <= u2_t3_h10 <= 1;
0 <= u2_t3_h11 <= 1;
0 <= u2_t3_h12 <= 1;
0 <= u2_t3_h13 <= 1;
0 <= u2_t3_h14 <= 1;
0 <= u2_t3_h15 <= 1;
0 <= u2_t3_h16 <= 1;
0 <= u2_t3_h17 <= 1;
0 <= u2_t3_h18 <= 1;
0 <= u2_t3_h19 <= 1;
0 <= u2_t3_h20 <= 1;
0 <= u2_t3_h21 <= 1;
0 <= u2_t3_h22 <= 1;
0 <= u2_t3_h23 <= 1;
u2_t3_h5 + u2_t3_h6 + u2_t3_h7 + u2_t3_h8 + u2_t3_h9 + u2_t3_h10 + u2_t3_h11 + u2_t3_h12 + u2_t3_h13 + u2_t3_h14 + u2_t3_h15 + u2_t3_h16 + u2_t3_h17 + u2_t3_h18 + u2_t3_h19 + u2_t3_h20 + u2_t3_h21 + u2_t3_h22 + u2_t3_h23 = 1;
0 <= u2_t4_h6 <= 1;
0 <= u2_t4_h7 <= 1;
0 <= u2_t4_h8 <= 1;
0 <= u2_t4_h9 <= 1;
0 <= u2_t4_h10 <= 1;
0 <= u2_t4_h11 <= 1;
0 <= u2_t4_h12 <= 1;
0 <= u2_t4_h13 <= 1;
0 <= u2_t4_h14 <= 1;
0 <= u2_t4_h15 <= 1;
0 <= u2_t4_h16 <= 1;
0 <= u2_t4_h17 <= 1;
0 <= u2_t4_h18 <= 1;
0 <= u2_t4_h19 <= 1;
0 <= u2_t4_h20 <= 1;
u2_t4_h6 + u2_t4_h7 + u2_t4_h8 + u2_t4_h9 + u2_t4_h10 + u2_t4_h11 + u2_t4_h12 + u2_t4_h13 + u2_t4_h14 + u2_t4_h15 + u2_t4_h16 + u2_t4_h17 + u2_t4_h18 + u2_t4_h19 + u2_t4_h20 = 3;
0 <= u2_t5_h19 <= 1;
u2_t5_h19 = 1;
0 <= u2_t6_h18 <= 1;
0 <= u2_t6_h19 <= 1;
0 <= u2_t6_h20 <= 1;
0 <= u2_t6_h21 <= 1;
u2_t6_h18 + u2_t6_h19 + u2_t6_h20 + u2_t6_h21 = 2;
0 <= u2_t7_h3 <= 1;
0 <= u2_t7_h4 <= 1;
0 <= u2_t7_h5 <= 1;
0 <= u2_t7_h6 <= 1;
0 <= u2_t7_h7 <= 1;
0 <= u2_t7_h8 <= 1;
0 <= u2_t7_h9 <= 1;
0 <= u2_t7_h10 <= 1;
0 <= u2_t7_h11 <= 1;
0 <= u2_t7_h12 <= 1;
0 <= u2_t7_h13 <= 1;
0 <= u2_t7_h14 <= 1;
0 <= u2_t7_h15 <= 1;
0 <= u2_t7_h16 <= 1;
0 <= u2_t7_h17 <= 1;
0 <= u2_t7_h18 <= 1;
0 <= u2_t7_h19 <= 1;
0 <= u2_t7_h20 <= 1;
0 <= u2_t7_h21 <= 1;
0 <= u2_t7_h22 <= 1;
0 <= u2_t7_h23 <= 1;
u2_t7_h3 + u2_t7_h4 + u2_t7_h5 + u2_t7_h6 + u2_t7_h7 + u2_t7_h8 + u2_t7_h9 + u2_t7_h10 + u2_t7_h11 + u2_t7_h12 + u2_t7_h13 + u2_t7_h14 + u2_t7_h15 + u2_t7_h16 + u2_t7_h17 + u2_t7_h18 + u2_t7_h19 + u2_t7_h20 + u2_t7_h21 + u2_t7_h22 + u2_t7_h23 = 3;
0 <= u2_t8_h21 <= 1;
0 <= u2_t8_h22 <= 1;
0 <= u2_t8_h23 <= 1;
u2_t8_h21 + u2_t8_h22 + u2_t8_h23 = 2;
0 <= u2_t9_h13 <= 1;
0 <= u2_t9_h14 <= 1;
0 <= u2_t9_h15 <= 1;
0 <= u2_t9_h16 <= 1;
0 <= u2_t9_h17 <= 1;
u2_t9_h13 + u2_t9_h14 + u2_t9_h15 + u2_t9_h16 + u2_t9_h17 = 1;
0 <= u2_t10_h6 <= 1;
0 <= u2_t10_h7 <= 1;
0 <= u2_t10_h8 <= 1;
0 <= u2_t10_h9 <= 1;
0 <= u2_t10_h10 <= 1;
0 <= u2_t10_h11 <= 1;
u2_t10_h6 + u2_t10_h7 + u2_t10_h8 + u2_t10_h9 + u2_t10_h10 + u2_t10_h11 = 2;
